nr_shelves = 10;
shelves = [6, 10, 6];

Product = P(1..5);

product_size = 
[|       Length: Width: Height: 
 | P(1):      2,     2,      2
 | P(2):      3,     3,      3
 | P(3):      4,     4,      4
 | P(4):      5,     5,      5
 | P(5):      6,     6,      6
 |];

nr_products = [5, 5, 5, 5, 5];
